
Starting CP-SAT solver v9.15.6755
Parameters: max_time_in_seconds: 3600 log_search_progress: true num_workers: 4

Initial satisfaction model '': (model_fingerprint: 0x88dca16802c3cd4a)
#Variables: 5'166 (4'882 primary variables)
  - 4'986 Booleans in [0,1]
  - 180 in [0,2]
#kBoolAnd: 4'318 (#enforced: 4'318) (#literals: 12'904)
#kBoolOr: 4'268 (#enforced: 4'268) (#literals: 8'536)
#kLinear2: 1'179 (#enforced: 974) (#complex_domain: 333)
#kLinear3: 180
#kLinearN: 105 (#terms: 4'500)

Starting presolve at 0.00s
  1.44e-03s  0.00e+00d  [DetectDominanceRelations] 
  1.38e-02s  0.00e+00d  [PresolveToFixPoint] #num_loops=2 #num_dual_strengthening=1 
  7.91e-05s  0.00e+00d  [ExtractEncodingFromLinear] #potential_subsets=180 
  2.92e-04s  0.00e+00d  [DetectDuplicateColumns] 
  1.98e-04s  0.00e+00d  [DetectDuplicateConstraints] 
[Symmetry] Graph for symmetry has 28'511 nodes and 61'343 arcs.
[Symmetry] Symmetry computation done. time: 0.00753067 dtime: 0.0198027
[SAT presolve] num removable Booleans: 358 / 5'526
[SAT presolve] num trivial clauses: 0
[SAT presolve] [0s] clauses:16'031 literals:39'327 vars:5'526 one_side_vars:0 simple_definition:3'985 singleton_clauses:0
[SAT presolve] [0.000624973s] clauses:16'031 literals:39'327 vars:5'526 one_side_vars:0 simple_definition:3'985 singleton_clauses:0
[SAT presolve] [0.000925493s] clauses:15'956 literals:39'152 vars:5'501 one_side_vars:0 simple_definition:3'985 singleton_clauses:0
  2.74e-04s  0.00e+00d  [DetectDuplicateConstraintsWithDifferentEnforcements] 
  5.29e-02s  6.04e-02d  [Probe] #probed=8'577 #fixed_bools=1'269 #new_bounds=41 #equiv=559 #new_binary_clauses=7'011 
  5.84e-03s  9.46e-03d  [MaxClique] Merged 8'782 constraints with 18'422 literals into 6'123 constraints with 15'739 literals
  1.81e-03s  0.00e+00d  [DetectDominanceRelations] 
  7.78e-03s  0.00e+00d  [PresolveToFixPoint] #num_loops=2 #num_dual_strengthening=1 
  1.04e-03s  0.00e+00d  [ProcessAtMostOneAndLinear] 
  2.28e-04s  0.00e+00d  [DetectDuplicateConstraints] #duplicates=54 
  2.06e-04s  0.00e+00d  [DetectDuplicateConstraintsWithDifferentEnforcements] 
  1.90e-04s  1.19e-05d  [DetectDominatedLinearConstraints] #relevant_constraints=244 #num_inclusions=2 
  1.21e-04s  0.00e+00d  [DetectDifferentVariables] 
  1.61e-03s  1.32e-04d  [ProcessSetPPC] #relevant_constraints=8'908 #num_inclusions=801 
  1.46e-03s  3.43e-04d  [TransformClausesToExactlyOne] #num_amos=3'656 #num_clauses=5'325 #num_transformed=9 #num_checked=5'325 
  1.00e-03s  0.00e+00d  [DetectEncodedComplexDomains] 
  1.52e-04s  7.40e-07d  [FindAlmostIdenticalLinearConstraints] #num_tested_pairs=10 
  1.25e-03s  2.09e-03d  [FindBigAtMostOneAndLinearOverlap] 
  4.39e-04s  9.34e-04d  [FindBigVerticalLinearOverlap] 
  9.81e-05s  1.68e-05d  [FindBigHorizontalLinearOverlap] #linears=102 
  7.30e-04s  7.97e-05d  [MergeClauses] #num_collisions=15 #num_merges=15 #num_saved_literals=30 
  1.83e-03s  0.00e+00d  [DetectDominanceRelations] 
  6.16e-03s  0.00e+00d  [PresolveToFixPoint] #num_loops=1 #num_dual_strengthening=1 
  1.82e-03s  0.00e+00d  [DetectDominanceRelations] 
  6.14e-03s  0.00e+00d  [PresolveToFixPoint] #num_loops=1 #num_dual_strengthening=1 
  3.21e-04s  0.00e+00d  [DetectDuplicateColumns] 
  2.06e-04s  0.00e+00d  [DetectDuplicateConstraints] #duplicates=3 
[Symmetry] Graph for symmetry has 19'444 nodes and 37'008 arcs.
[Symmetry] Symmetry computation done. time: 0.00291546 dtime: 0.00667893
[SAT presolve] num removable Booleans: 274 / 3'673
[SAT presolve] num trivial clauses: 0
[SAT presolve] [0s] clauses:6'292 literals:17'900 vars:3'672 one_side_vars:2524 simple_definition:232 singleton_clauses:0
[SAT presolve] [0.000281785s] clauses:6'291 literals:17'891 vars:3'672 one_side_vars:2524 simple_definition:232 singleton_clauses:0
[SAT presolve] [0.00051031s] clauses:6'265 literals:17'828 vars:3'664 one_side_vars:2524 simple_definition:231 singleton_clauses:0
  4.43e-04s  0.00e+00d  [DetectDuplicateConstraintsWithDifferentEnforcements] 
  3.59e-02s  3.98e-02d  [Probe] #probed=8'552 #equiv=1 #new_binary_clauses=2'308 
  4.00e-03s  8.46e-03d  [MaxClique] Merged 3'633 constraints with 10'421 literals into 3'552 constraints with 10'312 literals
  1.87e-03s  0.00e+00d  [DetectDominanceRelations] 
  6.65e-03s  0.00e+00d  [PresolveToFixPoint] #num_loops=1 #num_dual_strengthening=1 
  1.11e-03s  0.00e+00d  [ProcessAtMostOneAndLinear] 
  3.78e-04s  0.00e+00d  [DetectDuplicateConstraints] #duplicates=1 
  2.73e-04s  0.00e+00d  [DetectDuplicateConstraintsWithDifferentEnforcements] 
  2.31e-04s  1.19e-05d  [DetectDominatedLinearConstraints] #relevant_constraints=244 #num_inclusions=2 
  1.54e-04s  0.00e+00d  [DetectDifferentVariables] 
  1.63e-03s  1.34e-04d  [ProcessSetPPC] #relevant_constraints=8'936 #num_inclusions=800 
  1.57e-03s  3.55e-04d  [TransformClausesToExactlyOne] #num_amos=3'553 #num_clauses=5'283 #num_checked=5'283 
  1.04e-03s  0.00e+00d  [DetectEncodedComplexDomains] 
  1.78e-04s  6.75e-07d  [FindAlmostIdenticalLinearConstraints] #num_tested_pairs=8 
  1.31e-03s  2.09e-03d  [FindBigAtMostOneAndLinearOverlap] 
  4.33e-04s  9.33e-04d  [FindBigVerticalLinearOverlap] 
  1.39e-04s  1.68e-05d  [FindBigHorizontalLinearOverlap] #linears=102 
  7.68e-04s  7.93e-05d  [MergeClauses] #num_collisions=13 #num_merges=13 #num_saved_literals=26 
  1.91e-03s  0.00e+00d  [DetectDominanceRelations] 
  6.29e-03s  0.00e+00d  [PresolveToFixPoint] #num_loops=1 #num_dual_strengthening=1 
  1.89e-03s  0.00e+00d  [DetectDominanceRelations] 
  6.27e-03s  0.00e+00d  [PresolveToFixPoint] #num_loops=1 #num_dual_strengthening=1 
  3.74e-04s  0.00e+00d  [DetectDuplicateColumns] 
  2.78e-04s  0.00e+00d  [DetectDuplicateConstraints] #duplicates=1 
[Symmetry] Graph for symmetry has 19'425 nodes and 36'759 arcs.
[Symmetry] Symmetry computation done. time: 0.00288232 dtime: 0.0067293
[SAT presolve] num removable Booleans: 259 / 3'664
[SAT presolve] num trivial clauses: 0
[SAT presolve] [0s] clauses:6'136 literals:17'557 vars:3'663 one_side_vars:2523 simple_definition:235 singleton_clauses:0
[SAT presolve] [0.000265277s] clauses:6'136 literals:17'557 vars:3'663 one_side_vars:2523 simple_definition:235 singleton_clauses:0
[SAT presolve] [0.000464971s] clauses:6'136 literals:17'557 vars:3'663 one_side_vars:2523 simple_definition:235 singleton_clauses:0
  4.25e-04s  0.00e+00d  [DetectDuplicateConstraintsWithDifferentEnforcements] 
  3.60e-02s  3.98e-02d  [Probe] #probed=8'552 #new_binary_clauses=2'301 
  3.99e-03s  8.45e-03d  [MaxClique] Merged 3'552 constraints with 10'302 literals into 3'542 constraints with 10'283 literals
  2.03e-03s  0.00e+00d  [DetectDominanceRelations] 
  6.95e-03s  0.00e+00d  [PresolveToFixPoint] #num_loops=1 #num_dual_strengthening=1 
  1.20e-03s  0.00e+00d  [ProcessAtMostOneAndLinear] 
  4.01e-04s  0.00e+00d  [DetectDuplicateConstraints] 
  3.01e-04s  0.00e+00d  [DetectDuplicateConstraintsWithDifferentEnforcements] 
  2.53e-04s  1.19e-05d  [DetectDominatedLinearConstraints] #relevant_constraints=244 #num_inclusions=2 
  1.89e-04s  0.00e+00d  [DetectDifferentVariables] 
  1.67e-03s  1.33e-04d  [ProcessSetPPC] #relevant_constraints=8'926 #num_inclusions=789 
  1.61e-03s  3.55e-04d  [TransformClausesToExactlyOne] #num_amos=3'542 #num_clauses=5'283 #num_checked=5'283 
  1.07e-03s  0.00e+00d  [DetectEncodedComplexDomains] 
  2.05e-04s  2.90e-07d  [FindAlmostIdenticalLinearConstraints] #num_tested_pairs=4 
  1.29e-03s  2.09e-03d  [FindBigAtMostOneAndLinearOverlap] 
  4.53e-04s  9.33e-04d  [FindBigVerticalLinearOverlap] 
  1.64e-04s  1.68e-05d  [FindBigHorizontalLinearOverlap] #linears=102 
  8.46e-04s  7.93e-05d  [MergeClauses] #num_collisions=13 #num_merges=13 #num_saved_literals=26 
  2.02e-03s  0.00e+00d  [DetectDominanceRelations] 
  6.82e-03s  0.00e+00d  [PresolveToFixPoint] #num_loops=1 #num_dual_strengthening=1 
  1.39e-04s  0.00e+00d  [MergeNoOverlap] 
  1.43e-04s  0.00e+00d  [MergeNoOverlap2D] 

Presolve summary:
  - 584 affine relations were detected.
  - rule 'TODO dual: only one blocking constraint?' was applied 204 times.
  - rule 'TODO linear2: contains a boolean' was applied 192 times.
  - rule 'affine: new relation' was applied 584 times.
  - rule 'at_most_one: empty or all false' was applied 39 times.
  - rule 'at_most_one: removed literals' was applied 1'286 times.
  - rule 'at_most_one: satisfied' was applied 1'184 times.
  - rule 'at_most_one: size one' was applied 1'190 times.
  - rule 'at_most_one: transformed into max clique' was applied 3 times.
  - rule 'bool_and: x => x' was applied 56 times.
  - rule 'bool_or: always true' was applied 1'707 times.
  - rule 'bool_or: implications' was applied 397 times.
  - rule 'bool_or: removed enforcement literal' was applied 3'001 times.
  - rule 'clauses: transformed into exactly one' was applied 9 times.
  - rule 'deductions: 1701 stored' was applied 1 time.
  - rule 'duplicate: removed constraint' was applied 59 times.
  - rule 'enforcement: false literal' was applied 120 times.
  - rule 'enforcement: true literal' was applied 102 times.
  - rule 'linear1: transformed to implication' was applied 4 times.
  - rule 'linear2: convert ax + by != cte to clauses' was applied 531 times.
  - rule 'linear2: convert implied ax + by == cte to clauses' was applied 333 times.
  - rule 'linear: always true' was applied 26 times.
  - rule 'linear: empty' was applied 130 times.
  - rule 'linear: enforcement literal in expression' was applied 20 times.
  - rule 'linear: extracted at most one (max)' was applied 66 times.
  - rule 'linear: fixed or dup variables' was applied 256 times.
  - rule 'linear: remapped using affine relations' was applied 112 times.
  - rule 'new_bool: integer encoding' was applied 540 times.
  - rule 'presolve: 1291 unused variables removed.' was applied 1 time.
  - rule 'presolve: iteration' was applied 3 times.
  - rule 'probing: bool_or reduced to implication' was applied 1'328 times.
  - rule 'setppc: bool_or in at_most_one' was applied 13 times.
  - rule 'setppc: removed dominated constraints' was applied 5 times.
  - rule 'variables: add encoding constraint' was applied 540 times.
  - rule 'variables: canonicalize domain' was applied 5 times.

Presolved satisfaction model '': (model_fingerprint: 0x8bdcaee53f97ce31)
#Variables: 3'803 (3'573 primary variables)
  - 3'664 Booleans in [0,1]
  - 139 in [0,2]
#kAtMostOne: 2'700 (#literals: 8'599)
#kBoolAnd: 787 (#enforced: 787) (#literals: 1'629)
#kBoolAndClauses: 11 (#enforced: 11 #multi: 11) (#literals: 46)
#kBoolOr: 5'259 (#literals: 15'779)
#kExactlyOne: 12 (#literals: 36)
#kLinear1: 834 (#enforced: 834)
#kLinear2: 247 (#enforced: 244)
#kLinear3: 139
#kLinearN: 102 (#terms: 3'362)
[Symmetry] Graph for symmetry has 17'508 nodes and 36'730 arcs.
[Symmetry] Symmetry computation done. time: 0.00269385 dtime: 0.00660836

Preloading model.
#Model   0.29s var:3803/3803 constraints:10091/10091

Starting search at 0.29s with 4 workers.
3 full problem subsolvers: [default_lp, max_lp, no_lp]
1 first solution subsolver: [fj]
2 interleaved subsolvers: [feasibility_pump, rins/rens]
2 helper subsolvers: [neighborhood_helper, synchronization_agent]

#Model   0.47s var:3798/3803 constraints:10070/10091
#Model   0.80s var:3796/3803 constraints:10066/10091
#Model   0.87s var:3742/3803 constraints:9993/10091
#Model   0.94s var:3732/3803 constraints:9950/10091
#Model   2.61s var:3731/3803 constraints:9949/10091
#Model   2.68s var:3728/3803 constraints:9948/10091
#Model   6.16s var:3723/3803 constraints:9947/10091
#Model  11.62s var:3704/3803 constraints:9912/10091
#Model  12.87s var:3703/3803 constraints:9912/10091
#Model  14.87s var:3680/3803 constraints:9875/10091
#Model  17.00s var:3677/3803 constraints:9874/10091
#Model  19.74s var:3674/3803 constraints:9873/10091
#Model  34.25s var:3673/3803 constraints:9873/10091
#Model  42.87s var:3672/3803 constraints:9873/10091
#Model  86.25s var:3671/3803 constraints:9873/10091
#Model 117.44s var:3670/3803 constraints:9873/10091
#Model 193.05s var:3664/3803 constraints:9855/10091
#Model 214.01s var:3663/3803 constraints:9855/10091
#Model 273.98s var:3662/3803 constraints:9854/10091
